experiments/sat_smt/run/sat-l/results/louise.res
solved=true
solvingTime=419.6781005859375
nActions=33