experiments/sat_smt/run/sat-l/results/louise.out
Timesteps: 1
s UNSATISFIABLE
real 0.08
user 0.00
sys 0.00
Timesteps: 2
s UNSATISFIABLE
real 0.08
user 0.01
sys 0.00
Timesteps: 3
s UNSATISFIABLE
real 0.06
user 0.02
sys 0.00
Timesteps: 4
s UNSATISFIABLE
real 0.08
user 0.03
sys 0.00
Timesteps: 5
s UNSATISFIABLE
real 0.10
user 0.06
sys 0.00
Timesteps: 6
s UNSATISFIABLE
real 0.20
user 0.14
sys 0.00
Timesteps: 7
s UNSATISFIABLE
real 0.22
user 0.18
sys 0.00
Timesteps: 8
s UNSATISFIABLE
real 0.36
user 0.28
sys 0.00
Timesteps: 9
s UNSATISFIABLE
real 0.69
user 0.61
sys 0.00
Timesteps: 10
s UNSATISFIABLE
real 1.14
user 1.06
sys 0.01
Timesteps: 11
s UNSATISFIABLE
real 1.84
user 1.73
sys 0.01
Timesteps: 12
s UNSATISFIABLE
real 3.67
user 3.57
sys 0.01
Timesteps: 13
s UNSATISFIABLE
real 4.91
user 4.78
sys 0.01
Timesteps: 14
s UNSATISFIABLE
real 5.08
user 4.93
sys 0.02
Timesteps: 15
s UNSATISFIABLE
real 6.66
user 6.51
sys 0.02
Timesteps: 16
s UNSATISFIABLE
real 6.41
user 6.25
sys 0.01
Timesteps: 17
s UNSATISFIABLE
real 7.72
user 7.55
sys 0.01
Timesteps: 18
s UNSATISFIABLE
real 8.55
user 8.38
sys 0.01
Timesteps: 19
s UNSATISFIABLE
real 8.86
user 8.62
sys 0.04
Timesteps: 20
s UNSATISFIABLE
real 10.14
user 9.95
sys 0.02
Timesteps: 21
s UNSATISFIABLE
real 8.94
user 8.72
sys 0.04
Timesteps: 22
s UNSATISFIABLE
real 10.12
user 9.91
sys 0.03
Timesteps: 23
s UNSATISFIABLE
real 10.00
user 9.77
sys 0.04
Timesteps: 24
s UNSATISFIABLE
real 12.53
user 12.26
sys 0.05
Timesteps: 25
s UNSATISFIABLE
real 17.39
user 16.98
sys 0.03
Timesteps: 26
s UNSATISFIABLE
real 21.84
user 21.54
sys 0.05
Timesteps: 27
s UNSATISFIABLE
real 20.51
user 20.20
sys 0.04
Timesteps: 28
s UNSATISFIABLE
real 24.73
user 24.38
sys 0.08
Timesteps: 29
s UNSATISFIABLE
real 27.27
user 26.90
sys 0.07
Timesteps: 30
s UNSATISFIABLE
real 40.82
user 40.38
sys 0.09
Timesteps: 31
s UNSATISFIABLE
real 48.23
user 47.72
sys 0.10
Timesteps: 32
s UNSATISFIABLE
real 70.35
user 69.74
sys 0.14
Timesteps: 33
s SATISFIABLE
real 41.57
user 41.08
sys 0.08
